20	5
0	7	9	2	19	1	4	3	7
1	0
2	0
3	1	14
4	2	18	21
5	2	6	20
6	1	17
7	1	16
8	1	15
9	1	13
10	2	16	12
11	1	21
12	1	5
13	1	11
14	1	10
15	1	21
16	1	21
17	1	21
18	1	21
19	1	21
20	1	21
21	0
0	0	0	0	0	0	0
1	5	3	4	3	3	1
2	5	4	1	2	5	4
3	1	4	3	1	4	4
4	9	1	1	4	5	4
5	3	4	4	3	3	1
6	6	4	2	4	2	4
7	8	2	2	3	3	1
8	1	2	4	5	3	1
9	6	2	5	5	5	5
10	6	4	2	2	4	4
11	8	2	5	2	1	3
12	2	1	3	5	4	1
13	8	5	1	5	2	4
14	1	4	1	2	4	1
15	5	1	1	3	3	3
16	8	1	2	5	4	4
17	9	3	4	4	4	2
18	5	2	2	2	4	5
19	1	3	2	3	2	2
20	8	1	5	2	1	4
21	0	0	0	0	0	0
17	14	16	22	18
